c Cardinality constraint <=k(x_1,...,x_n) for k = 3 and n = 6.
p cnf 21 32
-1 7 0
-8 0
-9 0
-2 10 0
-7 10 0
-2 -7 11 0
-8 11 0
-2 -8 12 0
-9 12 0
-2 -9 0
-3 13 0
-10 13 0
-3 -10 14 0
-11 14 0
-3 -11 15 0
-12 15 0
-3 -12 0
-4 16 0
-13 16 0
-4 -13 17 0
-14 17 0
-4 -14 18 0
-15 18 0
-4 -15 0
-5 19 0
-16 19 0
-5 -16 20 0
-17 20 0
-5 -17 21 0
-18 21 0
-5 -18 0
-6 -21 0
